89914268451154197315015,3,1,2,015,12,1,2,011,13,1,2,05,15,1,2,02,12,1,2,07,8,1,2,01,9,1,2,08,14,1,2,05,10,1,2,07,14,1,2,015,6,1,2,015,15,1,2,011,6,1,2,04,1,1,2,010,11,1,2,04,12,1,2,09,9,1,2,010,6,1,2,04,15,1,2,04,2,1,2,01,1,1,2,07,15,1,2,06,7,1,2,011,6,1,2,07,9,1,2,03,2,1,2,06,2,1,2,06,7,1,2,03,14,1,2,014,15,1,2,01,2,1,2,012,8,1,2,013,2,1,2,013,9,1,2,02,2,1,2,012,3,1,2,011,6,1,2,02,1,1,2,011,11,1,2,011,3,1,2,010,7,1,2,04,12,1,2,06,10,1,2,05,15,1,2,01,12,1,2,03,1,1,2,07,15,1,2,05,5,1,2,04,4,1,2,07,5,1,2,0